10	5	2	0
0	1	5	7	5	3	1	2	[0 0 0]	[0 0 0]	[0 0 0]	[0 0 0]	[0 0 0]
1	3	4	8	9	6	11	[8 -6 20 10 1 10 23 1 -3]	[1 7 3 9 12 9 -4 9 13]	[2 5 18 0 3 12 19 3 12]	[7 8 8]
2	3	4	4	9	10	11	[14 8 6 11 15 10 2 2 1]	[0 10 7 0 14 0 0 1 3]	[2 -4 12 18 16 -4 6 2 0]	[5 6 2]
3	3	3	9	8	6	[1 0 0 9 6 9 2 2 0]	[1 2 1 5 5 6 5 -1 2]	[0 0 3 0 6 3 6 0 1]
4	3	3	11	5	7	[7 2 9]	[7 -3 12 6 0 1 -2 12 0]	[18 17 12 0 5 1 -4 13 -8]
5	3	2	8	11	[12 4 3 8 19 7 3 6 2]	[7 9 2]
6	3	3	10	7	11	[1 0 5 12 9 21 11 21 3]	[2 5 1 -1 18 8 9 -6 -6]	[2 7 7]
7	3	4	2	6	4	11	[-47 -16 -55 -39 -55 -44 -50 -30 -30]	[-39 -21 -60 -18 -59 -23 -50 -13 -18]	[-12 -56 -26 -18 -45 -41 -61 -40 -17]	[3 2 2]
8	3	1	11	[5 7 8]
9	3	1	11	[1 2 5]
10	3	2	11	3	[5 4 8]	[-43 -39 -29 -60 -32 -18 -33 -44 -35]
11	1	0
0	1	0	0	0	0	0	0	0	0
1	1	7	3	2	3	5	4	3	4
	2	8	3	2	3	5	4	3	4
	3	8	3	2	3	5	4	3	4
2	1	5	1	3	3	3	3	5	4
	2	6	1	3	3	3	3	5	4
	3	2	1	3	3	3	3	5	4
3	1	1	3	5	1	1	5	2	2
	2	3	3	5	1	1	5	2	2
	3	2	3	5	1	1	5	2	2
4	1	7	3	2	5	4	4	1	1
	2	2	3	2	5	4	4	1	1
	3	9	3	2	5	4	4	1	1
5	1	7	3	1	2	3	3	4	1
	2	9	3	1	2	3	3	4	1
	3	2	3	1	2	3	3	4	1
6	1	2	5	3	4	1	1	1	3
	2	7	5	3	4	1	1	1	3
	3	7	5	3	4	1	1	1	3
7	1	3	4	1	1	1	5	2	2
	2	2	4	1	1	1	5	2	2
	3	2	4	1	1	1	5	2	2
8	1	5	3	2	3	3	5	1	1
	2	7	3	2	3	3	5	1	1
	3	8	3	2	3	3	5	1	1
9	1	1	1	2	3	4	5	5	3
	2	2	1	2	3	4	5	5	3
	3	5	1	2	3	4	5	5	3
10	1	5	5	2	3	5	5	5	1
	2	4	5	2	3	5	5	5	1
	3	8	5	2	3	5	5	5	1
11	1	0	0	0	0	0	0	0	0
5	5	5	5	5	29	51
